data/lp_files/pEFS/53_1.lp
\ Model foo
\ LP format - for model browsing. Use MPS format to capture full model detail.
Minimize
  z
Subject To
 allocateEach[1]: x[1,1] + x[2,1] + x[3,1] = 1
 allocateEach[2]: x[1,2] + x[2,2] + x[3,2] = 1
 allocateEach[3]: x[1,3] + x[2,3] + x[3,3] = 1
 allocateEach[4]: x[1,4] + x[2,4] + x[3,4] = 1
 allocateEach[5]: x[1,5] + x[2,5] + x[3,5] = 1
 allocateEach[6]: x[1,6] + x[2,6] + x[3,6] = 1
 allocateEach[7]: x[1,7] + x[2,7] + x[3,7] = 1
 allocateEach[8]: x[1,8] + x[2,8] + x[3,8] = 1
 allocateEach[9]: x[1,9] + x[2,9] + x[3,9] = 1
 allocateEach[10]: x[1,10] + x[2,10] + x[3,10] = 1
 allocateEach[11]: x[1,11] + x[2,11] + x[3,11] = 1
 allocateEach[12]: x[1,12] + x[2,12] + x[3,12] = 1
 allocateEach[13]: x[1,13] + x[2,13] + x[3,13] = 1
 allocateAllCash: cashProportion[1] + cashProportion[2] + cashProportion[3]
   = 1
 findWorstP[1,2]: z + 0.0132177223220895 cashProportion[1]
   - 0.0132177223220895 cashProportion[2] + 0.0835756582425716 x[1,1]
   + 0.0861531140953791 x[1,2] + 0.0284048852701702 x[1,3]
   + 0.1071957280321455 x[1,4] + 0.071362482816961 x[1,5]
   + 0.016997990906207 x[1,6] + 0.1102093687215819 x[1,7]
   + 0.1033625885587396 x[1,8] + 0.0701464523633288 x[1,9]
   + 0.1092973458813577 x[1,10] + 0.00465263825737549 x[1,11]
   + 0.1253965316696627 x[1,12] + 0.07002749286243 x[1,13]
   - 0.0835756582425716 x[2,1] - 0.0861531140953791 x[2,2]
   - 0.0284048852701702 x[2,3] - 0.1071957280321455 x[2,4]
   - 0.071362482816961 x[2,5] - 0.016997990906207 x[2,6]
   - 0.1102093687215819 x[2,7] - 0.1033625885587396 x[2,8]
   - 0.0701464523633288 x[2,9] - 0.1092973458813577 x[2,10]
   - 0.00465263825737549 x[2,11] - 0.1253965316696627 x[2,12]
   - 0.07002749286243 x[2,13] >= 0
 findWorstP[1,3]: z + 0.0132177223220895 cashProportion[1]
   - 0.0132177223220895 cashProportion[3] + 0.0835756582425716 x[1,1]
   + 0.0861531140953791 x[1,2] + 0.0284048852701702 x[1,3]
   + 0.1071957280321455 x[1,4] + 0.071362482816961 x[1,5]
   + 0.016997990906207 x[1,6] + 0.1102093687215819 x[1,7]
   + 0.1033625885587396 x[1,8] + 0.0701464523633288 x[1,9]
   + 0.1092973458813577 x[1,10] + 0.00465263825737549 x[1,11]
   + 0.1253965316696627 x[1,12] + 0.07002749286243 x[1,13]
   - 0.0835756582425716 x[3,1] - 0.0861531140953791 x[3,2]
   - 0.0284048852701702 x[3,3] - 0.1071957280321455 x[3,4]
   - 0.071362482816961 x[3,5] - 0.016997990906207 x[3,6]
   - 0.1102093687215819 x[3,7] - 0.1033625885587396 x[3,8]
   - 0.0701464523633288 x[3,9] - 0.1092973458813577 x[3,10]
   - 0.00465263825737549 x[3,11] - 0.1253965316696627 x[3,12]
   - 0.07002749286243 x[3,13] >= 0
 findWorstP[2,1]: z - 0.0174450046229262 cashProportion[1]
   + 0.0174450046229262 cashProportion[2] - 0.1117875896237113 x[1,1]
   - 0.1426652478062907 x[1,2] - 0.0148805889433561 x[1,3]
   - 0.0355005844076549 x[1,4] - 0.1346579906843675 x[1,5]
   - 0.0951799452226855 x[1,6] - 0.0393908204385674 x[1,7]
   - 0.0238298763149172 x[1,8] - 0.0812413865289674 x[1,9]
   - 0.0778919456413656 x[1,10] - 0.0737225895364862 x[1,11]
   - 0.1012856968407097 x[1,12] - 0.0505207333879944 x[1,13]
   + 0.1117875896237113 x[2,1] + 0.1426652478062907 x[2,2]
   + 0.0148805889433561 x[2,3] + 0.0355005844076549 x[2,4]
   + 0.1346579906843675 x[2,5] + 0.0951799452226855 x[2,6]
   + 0.0393908204385674 x[2,7] + 0.0238298763149172 x[2,8]
   + 0.0812413865289674 x[2,9] + 0.0778919456413656 x[2,10]
   + 0.0737225895364862 x[2,11] + 0.1012856968407097 x[2,12]
   + 0.0505207333879944 x[2,13] >= 0
 findWorstP[2,3]: z + 0.0174450046229262 cashProportion[2]
   - 0.0174450046229262 cashProportion[3] + 0.1117875896237113 x[2,1]
   + 0.1426652478062907 x[2,2] + 0.0148805889433561 x[2,3]
   + 0.0355005844076549 x[2,4] + 0.1346579906843675 x[2,5]
   + 0.0951799452226855 x[2,6] + 0.0393908204385674 x[2,7]
   + 0.0238298763149172 x[2,8] + 0.0812413865289674 x[2,9]
   + 0.0778919456413656 x[2,10] + 0.0737225895364862 x[2,11]
   + 0.1012856968407097 x[2,12] + 0.0505207333879944 x[2,13]
   - 0.1117875896237113 x[3,1] - 0.1426652478062907 x[3,2]
   - 0.0148805889433561 x[3,3] - 0.0355005844076549 x[3,4]
   - 0.1346579906843675 x[3,5] - 0.0951799452226855 x[3,6]
   - 0.0393908204385674 x[3,7] - 0.0238298763149172 x[3,8]
   - 0.0812413865289674 x[3,9] - 0.0778919456413656 x[3,10]
   - 0.0737225895364862 x[3,11] - 0.1012856968407097 x[3,12]
   - 0.0505207333879944 x[3,13] >= 0
 findWorstP[3,1]: z - 0.0180979096914306 cashProportion[1]
   + 0.0180979096914306 cashProportion[3] - 0.0555062890236178 x[1,1]
   - 0.0483033209664284 x[1,2] - 0.1559315899013664 x[1,3]
   - 0.0440684100986336 x[1,4] - 0.0438512351823364 x[1,5]
   - 0.000398154 x[1,6] - 0.1676047416523392 x[1,7]
   - 0.0437607456338793 x[1,8] - 0.0320333001538322 x[1,9]
   - 0.1729436250113112 x[1,10] - 0.0402135553343589 x[1,11]
   - 0.0882092118360329 x[1,12] - 0.0890779115012216 x[1,13]
   + 0.0555062890236178 x[3,1] + 0.0483033209664284 x[3,2]
   + 0.1559315899013664 x[3,3] + 0.0440684100986336 x[3,4]
   + 0.0438512351823364 x[3,5] + 0.000398154 x[3,6]
   + 0.1676047416523392 x[3,7] + 0.0437607456338793 x[3,8]
   + 0.0320333001538322 x[3,9] + 0.1729436250113112 x[3,10]
   + 0.0402135553343589 x[3,11] + 0.0882092118360329 x[3,12]
   + 0.0890779115012216 x[3,13] >= 0
 findWorstP[3,2]: z - 0.0180979096914306 cashProportion[2]
   + 0.0180979096914306 cashProportion[3] - 0.0555062890236178 x[2,1]
   - 0.0483033209664284 x[2,2] - 0.1559315899013664 x[2,3]
   - 0.0440684100986336 x[2,4] - 0.0438512351823364 x[2,5]
   - 0.000398154 x[2,6] - 0.1676047416523392 x[2,7]
   - 0.0437607456338793 x[2,8] - 0.0320333001538322 x[2,9]
   - 0.1729436250113112 x[2,10] - 0.0402135553343589 x[2,11]
   - 0.0882092118360329 x[2,12] - 0.0890779115012216 x[2,13]
   + 0.0555062890236178 x[3,1] + 0.0483033209664284 x[3,2]
   + 0.1559315899013664 x[3,3] + 0.0440684100986336 x[3,4]
   + 0.0438512351823364 x[3,5] + 0.000398154 x[3,6]
   + 0.1676047416523392 x[3,7] + 0.0437607456338793 x[3,8]
   + 0.0320333001538322 x[3,9] + 0.1729436250113112 x[3,10]
   + 0.0402135553343589 x[3,11] + 0.0882092118360329 x[3,12]
   + 0.0890779115012216 x[3,13] >= 0
Bounds
 z <= 1
 -infinity <= cashProportion[1] <= 1
 -infinity <= cashProportion[2] <= 1
 -infinity <= cashProportion[3] <= 1
Binaries
 x[1,1] x[1,2] x[1,3] x[1,4] x[1,5] x[1,6] x[1,7] x[1,8] x[1,9] x[1,10]
 x[1,11] x[1,12] x[1,13] x[2,1] x[2,2] x[2,3] x[2,4] x[2,5] x[2,6] x[2,7]
 x[2,8] x[2,9] x[2,10] x[2,11] x[2,12] x[2,13] x[3,1] x[3,2] x[3,3] x[3,4]
 x[3,5] x[3,6] x[3,7] x[3,8] x[3,9] x[3,10] x[3,11] x[3,12] x[3,13]
End
