data/mps_files/pEFS/53_1.mps
NAME foo
ROWS
 N  OBJ
 E  allocateEach[1]
 E  allocateEach[2]
 E  allocateEach[3]
 E  allocateEach[4]
 E  allocateEach[5]
 E  allocateEach[6]
 E  allocateEach[7]
 E  allocateEach[8]
 E  allocateEach[9]
 E  allocateEach[10]
 E  allocateEach[11]
 E  allocateEach[12]
 E  allocateEach[13]
 E  allocateAllCash
 G  findWorstP[1,2]
 G  findWorstP[1,3]
 G  findWorstP[2,1]
 G  findWorstP[2,3]
 G  findWorstP[3,1]
 G  findWorstP[3,2]
COLUMNS
    z         OBJ       1
    z         findWorstP[1,2]  1
    z         findWorstP[1,3]  1
    z         findWorstP[2,1]  1
    z         findWorstP[2,3]  1
    z         findWorstP[3,1]  1
    z         findWorstP[3,2]  1
    cashProportion[1]  allocateAllCash  1
    cashProportion[1]  findWorstP[1,2]  1.3217722322089460e-02
    cashProportion[1]  findWorstP[1,3]  1.3217722322089460e-02
    cashProportion[1]  findWorstP[2,1]  -1.7445004622926225e-02
    cashProportion[1]  findWorstP[3,1]  -1.8097909691430641e-02
    cashProportion[2]  allocateAllCash  1
    cashProportion[2]  findWorstP[1,2]  -1.3217722322089460e-02
    cashProportion[2]  findWorstP[2,1]  1.7445004622926225e-02
    cashProportion[2]  findWorstP[2,3]  1.7445004622926225e-02
    cashProportion[2]  findWorstP[3,2]  -1.8097909691430641e-02
    cashProportion[3]  allocateAllCash  1
    cashProportion[3]  findWorstP[1,3]  -1.3217722322089460e-02
    cashProportion[3]  findWorstP[2,3]  -1.7445004622926225e-02
    cashProportion[3]  findWorstP[3,1]  1.8097909691430641e-02
    cashProportion[3]  findWorstP[3,2]  1.8097909691430641e-02
    MARKER    'MARKER'                 'INTORG'
    x[1,1]    allocateEach[1]  1
    x[1,1]    findWorstP[1,2]  8.3575658242571640e-02
    x[1,1]    findWorstP[1,3]  8.3575658242571640e-02
    x[1,1]    findWorstP[2,1]  -1.1178758962371126e-01
    x[1,1]    findWorstP[3,1]  -5.5506289023617761e-02
    x[1,2]    allocateEach[2]  1
    x[1,2]    findWorstP[1,2]  0.0861531140953791
    x[1,2]    findWorstP[1,3]  0.0861531140953791
    x[1,2]    findWorstP[2,1]  -1.4266524780629067e-01
    x[1,2]    findWorstP[3,1]  -4.8303320966428379e-02
    x[1,3]    allocateEach[3]  1
    x[1,3]    findWorstP[1,2]  2.8404885270170249e-02
    x[1,3]    findWorstP[1,3]  2.8404885270170249e-02
    x[1,3]    findWorstP[2,1]  -1.4880588943356070e-02
    x[1,3]    findWorstP[3,1]  -1.5593158990136638e-01
    x[1,4]    allocateEach[4]  1
    x[1,4]    findWorstP[1,2]  1.0719572803214553e-01
    x[1,4]    findWorstP[1,3]  1.0719572803214553e-01
    x[1,4]    findWorstP[2,1]  -3.5500584407654863e-02
    x[1,4]    findWorstP[3,1]  -4.4068410098633604e-02
    x[1,5]    allocateEach[5]  1
    x[1,5]    findWorstP[1,2]  7.1362482816960990e-02
    x[1,5]    findWorstP[1,3]  7.1362482816960990e-02
    x[1,5]    findWorstP[2,1]  -1.3465799068436754e-01
    x[1,5]    findWorstP[3,1]  -4.3851235182336433e-02
    x[1,6]    allocateEach[6]  1
    x[1,6]    findWorstP[1,2]  1.6997990906207044e-02
    x[1,6]    findWorstP[1,3]  1.6997990906207044e-02
    x[1,6]    findWorstP[2,1]  -9.5179945222685483e-02
    x[1,6]    findWorstP[3,1]  -3.9815401321147408e-04
    x[1,7]    allocateEach[7]  1
    x[1,7]    findWorstP[1,2]  1.1020936872158191e-01
    x[1,7]    findWorstP[1,3]  1.1020936872158191e-01
    x[1,7]    findWorstP[2,1]  -3.9390820438567418e-02
    x[1,7]    findWorstP[3,1]  -1.6760474165233916e-01
    x[1,8]    allocateEach[8]  1
    x[1,8]    findWorstP[1,2]  1.0336258855873957e-01
    x[1,8]    findWorstP[1,3]  1.0336258855873957e-01
    x[1,8]    findWorstP[2,1]  -2.3829876314917224e-02
    x[1,8]    findWorstP[3,1]  -4.3760745633879279e-02
    x[1,9]    allocateEach[9]  1
    x[1,9]    findWorstP[1,2]  7.0146452363328754e-02
    x[1,9]    findWorstP[1,3]  7.0146452363328754e-02
    x[1,9]    findWorstP[2,1]  -8.1241386528967424e-02
    x[1,9]    findWorstP[3,1]  -3.2033300153832225e-02
    x[1,10]   allocateEach[10]  1
    x[1,10]   findWorstP[1,2]  1.0929734588135773e-01
    x[1,10]   findWorstP[1,3]  1.0929734588135773e-01
    x[1,10]   findWorstP[2,1]  -7.7891945641365590e-02
    x[1,10]   findWorstP[3,1]  -1.7294362501131119e-01
    x[1,11]   allocateEach[11]  1
    x[1,11]   findWorstP[1,2]  0.00465263825737549
    x[1,11]   findWorstP[1,3]  0.00465263825737549
    x[1,11]   findWorstP[2,1]  -7.3722589536486222e-02
    x[1,11]   findWorstP[3,1]  -4.0213555334358879e-02
    x[1,12]   allocateEach[12]  1
    x[1,12]   findWorstP[1,2]  1.2539653166966269e-01
    x[1,12]   findWorstP[1,3]  1.2539653166966269e-01
    x[1,12]   findWorstP[2,1]  -1.0128569684070966e-01
    x[1,12]   findWorstP[3,1]  -8.8209211836032933e-02
    x[1,13]   allocateEach[13]  1
    x[1,13]   findWorstP[1,2]  7.0027492862429958e-02
    x[1,13]   findWorstP[1,3]  7.0027492862429958e-02
    x[1,13]   findWorstP[2,1]  -5.0520733387994350e-02
    x[1,13]   findWorstP[3,1]  -0.0890779115012216
    x[2,1]    allocateEach[1]  1
    x[2,1]    findWorstP[1,2]  -8.3575658242571640e-02
    x[2,1]    findWorstP[2,1]  1.1178758962371126e-01
    x[2,1]    findWorstP[2,3]  1.1178758962371126e-01
    x[2,1]    findWorstP[3,2]  -5.5506289023617761e-02
    x[2,2]    allocateEach[2]  1
    x[2,2]    findWorstP[1,2]  -0.0861531140953791
    x[2,2]    findWorstP[2,1]  1.4266524780629067e-01
    x[2,2]    findWorstP[2,3]  1.4266524780629067e-01
    x[2,2]    findWorstP[3,2]  -4.8303320966428379e-02
    x[2,3]    allocateEach[3]  1
    x[2,3]    findWorstP[1,2]  -2.8404885270170249e-02
    x[2,3]    findWorstP[2,1]  1.4880588943356070e-02
    x[2,3]    findWorstP[2,3]  1.4880588943356070e-02
    x[2,3]    findWorstP[3,2]  -1.5593158990136638e-01
    x[2,4]    allocateEach[4]  1
    x[2,4]    findWorstP[1,2]  -1.0719572803214553e-01
    x[2,4]    findWorstP[2,1]  3.5500584407654863e-02
    x[2,4]    findWorstP[2,3]  3.5500584407654863e-02
    x[2,4]    findWorstP[3,2]  -4.4068410098633604e-02
    x[2,5]    allocateEach[5]  1
    x[2,5]    findWorstP[1,2]  -7.1362482816960990e-02
    x[2,5]    findWorstP[2,1]  1.3465799068436754e-01
    x[2,5]    findWorstP[2,3]  1.3465799068436754e-01
    x[2,5]    findWorstP[3,2]  -4.3851235182336433e-02
    x[2,6]    allocateEach[6]  1
    x[2,6]    findWorstP[1,2]  -1.6997990906207044e-02
    x[2,6]    findWorstP[2,1]  9.5179945222685483e-02
    x[2,6]    findWorstP[2,3]  9.5179945222685483e-02
    x[2,6]    findWorstP[3,2]  -3.9815401321147408e-04
    x[2,7]    allocateEach[7]  1
    x[2,7]    findWorstP[1,2]  -1.1020936872158191e-01
    x[2,7]    findWorstP[2,1]  3.9390820438567418e-02
    x[2,7]    findWorstP[2,3]  3.9390820438567418e-02
    x[2,7]    findWorstP[3,2]  -1.6760474165233916e-01
    x[2,8]    allocateEach[8]  1
    x[2,8]    findWorstP[1,2]  -1.0336258855873957e-01
    x[2,8]    findWorstP[2,1]  2.3829876314917224e-02
    x[2,8]    findWorstP[2,3]  2.3829876314917224e-02
    x[2,8]    findWorstP[3,2]  -4.3760745633879279e-02
    x[2,9]    allocateEach[9]  1
    x[2,9]    findWorstP[1,2]  -7.0146452363328754e-02
    x[2,9]    findWorstP[2,1]  8.1241386528967424e-02
    x[2,9]    findWorstP[2,3]  8.1241386528967424e-02
    x[2,9]    findWorstP[3,2]  -3.2033300153832225e-02
    x[2,10]   allocateEach[10]  1
    x[2,10]   findWorstP[1,2]  -1.0929734588135773e-01
    x[2,10]   findWorstP[2,1]  7.7891945641365590e-02
    x[2,10]   findWorstP[2,3]  7.7891945641365590e-02
    x[2,10]   findWorstP[3,2]  -1.7294362501131119e-01
    x[2,11]   allocateEach[11]  1
    x[2,11]   findWorstP[1,2]  -0.00465263825737549
    x[2,11]   findWorstP[2,1]  7.3722589536486222e-02
    x[2,11]   findWorstP[2,3]  7.3722589536486222e-02
    x[2,11]   findWorstP[3,2]  -4.0213555334358879e-02
    x[2,12]   allocateEach[12]  1
    x[2,12]   findWorstP[1,2]  -1.2539653166966269e-01
    x[2,12]   findWorstP[2,1]  1.0128569684070966e-01
    x[2,12]   findWorstP[2,3]  1.0128569684070966e-01
    x[2,12]   findWorstP[3,2]  -8.8209211836032933e-02
    x[2,13]   allocateEach[13]  1
    x[2,13]   findWorstP[1,2]  -7.0027492862429958e-02
    x[2,13]   findWorstP[2,1]  5.0520733387994350e-02
    x[2,13]   findWorstP[2,3]  5.0520733387994350e-02
    x[2,13]   findWorstP[3,2]  -0.0890779115012216
    x[3,1]    allocateEach[1]  1
    x[3,1]    findWorstP[1,3]  -8.3575658242571640e-02
    x[3,1]    findWorstP[2,3]  -1.1178758962371126e-01
    x[3,1]    findWorstP[3,1]  5.5506289023617761e-02
    x[3,1]    findWorstP[3,2]  5.5506289023617761e-02
    x[3,2]    allocateEach[2]  1
    x[3,2]    findWorstP[1,3]  -0.0861531140953791
    x[3,2]    findWorstP[2,3]  -1.4266524780629067e-01
    x[3,2]    findWorstP[3,1]  4.8303320966428379e-02
    x[3,2]    findWorstP[3,2]  4.8303320966428379e-02
    x[3,3]    allocateEach[3]  1
    x[3,3]    findWorstP[1,3]  -2.8404885270170249e-02
    x[3,3]    findWorstP[2,3]  -1.4880588943356070e-02
    x[3,3]    findWorstP[3,1]  1.5593158990136638e-01
    x[3,3]    findWorstP[3,2]  1.5593158990136638e-01
    x[3,4]    allocateEach[4]  1
    x[3,4]    findWorstP[1,3]  -1.0719572803214553e-01
    x[3,4]    findWorstP[2,3]  -3.5500584407654863e-02
    x[3,4]    findWorstP[3,1]  4.4068410098633604e-02
    x[3,4]    findWorstP[3,2]  4.4068410098633604e-02
    x[3,5]    allocateEach[5]  1
    x[3,5]    findWorstP[1,3]  -7.1362482816960990e-02
    x[3,5]    findWorstP[2,3]  -1.3465799068436754e-01
    x[3,5]    findWorstP[3,1]  4.3851235182336433e-02
    x[3,5]    findWorstP[3,2]  4.3851235182336433e-02
    x[3,6]    allocateEach[6]  1
    x[3,6]    findWorstP[1,3]  -1.6997990906207044e-02
    x[3,6]    findWorstP[2,3]  -9.5179945222685483e-02
    x[3,6]    findWorstP[3,1]  3.9815401321147408e-04
    x[3,6]    findWorstP[3,2]  3.9815401321147408e-04
    x[3,7]    allocateEach[7]  1
    x[3,7]    findWorstP[1,3]  -1.1020936872158191e-01
    x[3,7]    findWorstP[2,3]  -3.9390820438567418e-02
    x[3,7]    findWorstP[3,1]  1.6760474165233916e-01
    x[3,7]    findWorstP[3,2]  1.6760474165233916e-01
    x[3,8]    allocateEach[8]  1
    x[3,8]    findWorstP[1,3]  -1.0336258855873957e-01
    x[3,8]    findWorstP[2,3]  -2.3829876314917224e-02
    x[3,8]    findWorstP[3,1]  4.3760745633879279e-02
    x[3,8]    findWorstP[3,2]  4.3760745633879279e-02
    x[3,9]    allocateEach[9]  1
    x[3,9]    findWorstP[1,3]  -7.0146452363328754e-02
    x[3,9]    findWorstP[2,3]  -8.1241386528967424e-02
    x[3,9]    findWorstP[3,1]  3.2033300153832225e-02
    x[3,9]    findWorstP[3,2]  3.2033300153832225e-02
    x[3,10]   allocateEach[10]  1
    x[3,10]   findWorstP[1,3]  -1.0929734588135773e-01
    x[3,10]   findWorstP[2,3]  -7.7891945641365590e-02
    x[3,10]   findWorstP[3,1]  1.7294362501131119e-01
    x[3,10]   findWorstP[3,2]  1.7294362501131119e-01
    x[3,11]   allocateEach[11]  1
    x[3,11]   findWorstP[1,3]  -0.00465263825737549
    x[3,11]   findWorstP[2,3]  -7.3722589536486222e-02
    x[3,11]   findWorstP[3,1]  4.0213555334358879e-02
    x[3,11]   findWorstP[3,2]  4.0213555334358879e-02
    x[3,12]   allocateEach[12]  1
    x[3,12]   findWorstP[1,3]  -1.2539653166966269e-01
    x[3,12]   findWorstP[2,3]  -1.0128569684070966e-01
    x[3,12]   findWorstP[3,1]  8.8209211836032933e-02
    x[3,12]   findWorstP[3,2]  8.8209211836032933e-02
    x[3,13]   allocateEach[13]  1
    x[3,13]   findWorstP[1,3]  -7.0027492862429958e-02
    x[3,13]   findWorstP[2,3]  -5.0520733387994350e-02
    x[3,13]   findWorstP[3,1]  0.0890779115012216
    x[3,13]   findWorstP[3,2]  0.0890779115012216
    MARKER    'MARKER'                 'INTEND'
RHS
    RHS1      allocateEach[1]  1
    RHS1      allocateEach[2]  1
    RHS1      allocateEach[3]  1
    RHS1      allocateEach[4]  1
    RHS1      allocateEach[5]  1
    RHS1      allocateEach[6]  1
    RHS1      allocateEach[7]  1
    RHS1      allocateEach[8]  1
    RHS1      allocateEach[9]  1
    RHS1      allocateEach[10]  1
    RHS1      allocateEach[11]  1
    RHS1      allocateEach[12]  1
    RHS1      allocateEach[13]  1
    RHS1      allocateAllCash  1
BOUNDS
 UP BND1      z         1
 MI BND1      cashProportion[1]
 UP BND1      cashProportion[1]  1
 MI BND1      cashProportion[2]
 UP BND1      cashProportion[2]  1
 MI BND1      cashProportion[3]
 UP BND1      cashProportion[3]  1
 BV BND1      x[1,1]  
 BV BND1      x[1,2]  
 BV BND1      x[1,3]  
 BV BND1      x[1,4]  
 BV BND1      x[1,5]  
 BV BND1      x[1,6]  
 BV BND1      x[1,7]  
 BV BND1      x[1,8]  
 BV BND1      x[1,9]  
 BV BND1      x[1,10] 
 BV BND1      x[1,11] 
 BV BND1      x[1,12] 
 BV BND1      x[1,13] 
 BV BND1      x[2,1]  
 BV BND1      x[2,2]  
 BV BND1      x[2,3]  
 BV BND1      x[2,4]  
 BV BND1      x[2,5]  
 BV BND1      x[2,6]  
 BV BND1      x[2,7]  
 BV BND1      x[2,8]  
 BV BND1      x[2,9]  
 BV BND1      x[2,10] 
 BV BND1      x[2,11] 
 BV BND1      x[2,12] 
 BV BND1      x[2,13] 
 BV BND1      x[3,1]  
 BV BND1      x[3,2]  
 BV BND1      x[3,3]  
 BV BND1      x[3,4]  
 BV BND1      x[3,5]  
 BV BND1      x[3,6]  
 BV BND1      x[3,7]  
 BV BND1      x[3,8]  
 BV BND1      x[3,9]  
 BV BND1      x[3,10] 
 BV BND1      x[3,11] 
 BV BND1      x[3,12] 
 BV BND1      x[3,13] 
ENDATA
